NAME : n60w80.002.498.tour
COMMENT : Length = 498
COMMENT : Found by LKH [Keld Helsgaun] Tue May  2 05:18:28 2017
TYPE : TOUR
DIMENSION : 61
TOUR_SECTION
1
7
39
52
60
16
44
20
32
35
55
43
49
19
34
15
17
9
59
37
29
14
30
56
41
24
8
33
48
54
5
18
57
23
11
4
45
12
22
53
51
31
46
27
13
28
6
3
26
38
2
36
42
58
21
25
40
61
47
10
50
-1
EOF
